/*********************************************
 * OPL 12.6.0.0 Data
 * Author: Adrian Rodriguez Bazaga, Pau Rodriguez Esmerats
 * Creation Date: 06/12/2017 at 23:04:57
 *********************************************/

nNurses=160;
maxConsec=2;
maxPresence=7;
maxHours=5;
minHours=1;
hours=24;
demand= [22 26 36 38 26 36 38 27 29 20 2 6 3 7 3 6 2 3 1 1 20 45 25 28  ];
